1694455.03 0
0 286 285 317 284 283 282 281 280 279 278 277 276 275 274 273 272 271 270 269 268 316 315 267 266 265 264 263 262 314 261 260 259 258 257 256 255 254 253 252 251 250 249 248 313 312 311 247 246 245 244 310 243 242 241 240 239 238 237 236 235 234 309 233 232 231 230 229 228 227 226 225 224 223 222 221 220 308 219 218 217 216 215 307 214 213 212 211 210 209 208 207 206 205 306 204 203 202 201 200 199 198 197 196 195 194 193 192 191 190 189 305 304 188 187 186 185 184 183 182 181 180 179 178 177 176 175 174 173 172 171 170 169 168 167 166 165 164 303 163 162 161 160 159 158 302 157 156 155 154 153 17 152 151 150 301 149 148 147 146 145 144 143 142 141 140 139 15 138 137 136 135 134 133 132 131 130 129 128 127 126 125 124 123 122 299 300 298 121 120 119 297 118 117 116 115 114 113 112 111 296 295 294 99 98 97 96 95 94 93 293 292 92 91 90 89 88 87 86 85 84 83 82 81 80 79 78 77 291 290 69 68 67 66 65 64 63 62 61 60 59 58 57 56 55 289 288 287 34 35 36 37 38 39 40 41 42 43 44 45 46 47 48 49 50 51 52 53 54 3 2 4 5 70 71 72 73 74 75 76 7 6 8 9 100 101 102 103 104 105 106 107 108 109 110 11 10 13 12 14 16 18 19 21 20 22 23 25 24 26 27 29 28 30 31 33 32 1
1704051.02 0
0 1 32 30 31 29 28 26 27 219 218 217 216 215 214 213 25 24 22 20 21 19 18 16 17 14 15 13 12 10 11 110 109 108 107 106 105 104 103 102 101 100 99 98 97 96 95 94 9 8 6 7 77 76 75 74 73 72 71 5 4 2 3 55 54 53 52 51 50 49 48 47 46 45 44 43 42 41 40 39 38 37 36 35 34 287 288 289 56 57 58 59 60 61 62 63 64 65 66 67 68 69 70 290 291 78 79 80 81 82 83 84 85 86 87 88 89 90 91 92 93 292 293 294 295 296 111 112 113 114 115 116 117 297 118 119 120 121 122 123 124 299 298 300 125 126 127 128 129 130 131 132 133 134 135 136 137 138 139 140 141 142 143 144 145 146 147 148 149 301 150 151 152 153 154 155 156 302 157 158 159 160 161 162 163 303 164 165 166 167 168 169 170 171 172 173 174 175 176 177 178 179 180 181 182 183 184 185 186 187 304 305 188 189 190 191 192 193 194 23 195 196 197 198 199 200 201 202 203 204 205 306 206 207 208 209 210 211 212 307 308 220 221 222 223 224 225 226 227 228 229 230 231 232 233 309 234 235 236 237 238 239 240 241 242 310 243 244 245 246 247 248 249 311 312 313 250 251 252 253 254 255 256 257 258 259 260 261 314 262 263 264 33 265 266 267 315 316 268 269 270 271 272 273 274 275 276 277 278 279 280 281 282 317 286 285 284 283
1692745.95 0
0 1 33 32 30 31 252 251 250 249 248 247 246 245 244 243 242 241 240 29 28 26 27 220 219 218 217 216 215 25 24 22 23 20 21 19 18 16 14 15 13 12 10 11 107 106 105 104 103 102 101 100 99 98 97 96 95 94 9 8 6 7 75 74 73 72 5 4 2 3 54 53 52 51 50 49 48 47 46 45 44 43 42 41 40 39 38 37 36 35 34 287 288 289 55 56 57 58 59 60 61 62 63 64 65 66 67 68 69 70 71 290 291 76 77 78 79 80 81 82 83 84 85 86 87 88 89 90 91 92 93 292 293 294 295 296 108 109 110 111 112 113 114 115 116 117 118 297 119 120 121 122 123 299 298 300 124 125 126 127 128 129 130 131 132 133 134 135 136 137 138 139 140 141 142 143 144 145 146 147 148 149 301 150 151 152 17 153 154 155 156 302 157 158 159 160 161 162 163 303 164 165 166 167 168 169 170 171 172 173 174 175 176 177 178 179 180 181 182 183 184 185 186 187 188 304 305 189 190 191 192 193 194 195 196 197 198 199 200 201 202 203 204 205 306 206 207 208 209 210 211 212 213 214 307 308 221 222 223 224 225 226 227 228 229 230 231 232 233 309 234 235 236 237 238 239 310 311 312 313 253 254 255 256 257 258 259 260 261 314 262 263 264 265 266 315 316 267 268 269 270 271 272 273 274 275 276 277 278 279 280 281 282 283 317 284 285 286
